p cnf 35 98
a 18 10 0
e 1 2 3 4 5 6 7 8 9 11 12 13 14 15 16 17 19 20 21 22 23 24 25 26 27 28 29 30 31 32 33 34 35 0
4 -2 0
4 -3 0
2 3 -4 0
5 -1 0
5 -4 0
1 4 -5 0
2 -6 -7 0
-2 6 -7 0
2 6 7 0
-2 -6 7 0
-8 5 0
-8 7 0
-5 -7 8 0
-10 -9 0
-10 1 0
9 -1 10 0
-12 -11 0
-12 6 0
11 -6 12 0
-14 -12 0
-14 -13 0
12 13 14 0
15 -1 0
15 14 0
1 -14 -15 0
-15 16 -17 0
15 -16 -17 0
-15 -16 17 0
15 16 17 0
-18 1 0
-18 -17 0
-1 17 18 0
-18 -16 -19 0
18 16 -19 0
-18 16 19 0
18 -16 19 0
-20 10 0
-20 -19 0
-10 19 20 0
-21 6 0
-21 -1 0
-6 1 21 0
22 -21 0
22 12 0
21 -12 -22 0
22 18 -23 0
-22 -18 -23 0
22 -18 23 0
-22 18 23 0
20 -23 -24 0
-20 23 -24 0
20 23 24 0
-20 -23 24 0
-25 -22 0
-25 1 0
22 -1 25 0
-26 24 0
-26 25 0
-24 -25 26 0
8 26 -27 0
-8 -26 -27 0
8 -26 27 0
-8 26 27 0
28 -1 0
28 -13 0
1 13 -28 0
-6 28 -29 0
6 -28 -29 0
-6 -28 29 0
6 28 29 0
-30 -28 0
-30 -2 0
28 2 30 0
31 30 0
31 -2 0
-30 2 -31 0
-32 -29 0
-32 31 0
29 -31 32 0
33 1 0
33 -17 0
-1 17 -33 0
34 32 0
34 33 0
-32 -33 -34 0
-35 27 0
-35 -34 0
-27 34 35 0
-13 -28 -31 0
-28 19 -24 -26 -11 22 -35 0
-18 -31 -7 -1 -24 15 0
6 33 -3 -26 -32 0
-22 -9 -10 8 17 -12 -14 -20 0
-31 7 34 26 27 3 29 -18 0
-3 -23 34 0
11 -7 1 0
5 -35 -26 -21 34 0
35 0
